data/solutions/planning/wellformed/hard/weighting/wellformed_hard_instance40_gurobi.sol
Elapsed time: 877.44
Nodes explored: 812119
Nodes left: 4
Relative gap: 0.0
Upper bound: 4217341246.0
Lower bound: 4217341246
C[0]=128707.0
C[1]=128707.0
C[2]=128707.0
C[3]=128707.0
C[4]=128707.0
C[5]=128706.0
C[6]=128706.0
C[7]=128706.0
C[8]=128706.0
C[9]=128706.0
C[10]=128706.0
C[11]=128706.0
C[12]=128706.0
C[13]=128706.0
C[14]=128706.0
y[0]=11
y[1]=3
y[2]=11
y[3]=1
y[4]=1
y[5]=1
y[6]=11
y[7]=7
y[8]=9
y[9]=7
y[10]=2
y[11]=10
y[12]=6
y[13]=5
y[14]=11
y[15]=13
y[16]=4
y[17]=2
y[18]=7
y[19]=0
y[20]=1
y[21]=1
y[22]=8
y[23]=14
y[24]=10
y[25]=1
y[26]=13
y[27]=7
y[28]=1
y[29]=2
y[30]=13
y[31]=1
y[32]=0
y[33]=1
y[34]=10
y[35]=5
y[36]=1
y[37]=13
y[38]=12
y[39]=11
y[40]=7
y[41]=1
y[42]=5
y[43]=10
y[44]=2
y[45]=7
y[46]=8
y[47]=8
y[48]=5
y[49]=5
y[50]=4
y[51]=11
y[52]=8
y[53]=2
y[54]=1
y[55]=5
y[56]=5
y[57]=8
y[58]=12
y[59]=14
y[60]=10
y[61]=12
y[62]=11
y[63]=2
y[64]=12
y[65]=4
y[66]=12
y[67]=11
y[68]=3
y[69]=0
y[70]=11
y[71]=11
y[72]=5
y[73]=3
y[74]=11
y[75]=0
y[76]=14
y[77]=14
y[78]=12
y[79]=7
y[80]=4
y[81]=8
y[82]=7
y[83]=12
y[84]=13
y[85]=8
y[86]=8
y[87]=9
y[88]=4
y[89]=6
y[90]=4
y[91]=7
y[92]=11
y[93]=1
y[94]=14
y[95]=7
y[96]=11
y[97]=3
y[98]=9
y[99]=3
y[100]=7
y[101]=6
y[102]=10
y[103]=9
y[104]=12
y[105]=8
y[106]=14
y[107]=11
y[108]=11
y[109]=3
y[110]=2
y[111]=11
y[112]=9
y[113]=0
y[114]=4
y[115]=11
y[116]=14
y[117]=11
y[118]=13
y[119]=8
y[120]=0
y[121]=14
y[122]=9
y[123]=13
y[124]=14
y[125]=6
y[126]=5
y[127]=6
y[128]=2
y[129]=8
y[130]=11
y[131]=4
y[132]=9
y[133]=11
y[134]=5
y[135]=6
y[136]=14
y[137]=7
y[138]=5
y[139]=1
y[140]=8
y[141]=9
y[142]=0
y[143]=14
y[144]=11
y[145]=14
y[146]=7
y[147]=4
y[148]=6
y[149]=1
y[150]=3
y[151]=1
y[152]=7
y[153]=10
y[154]=10
y[155]=1
y[156]=5
y[157]=2
y[158]=10
y[159]=4
y[160]=1
y[161]=14
y[162]=11
y[163]=7
y[164]=8
y[165]=5
y[166]=8
y[167]=8
y[168]=5
y[169]=3
y[170]=13
y[171]=14
y[172]=10
y[173]=10
y[174]=10
y[175]=9
y[176]=0
y[177]=5
y[178]=10
y[179]=9
y[180]=1
y[181]=14
y[182]=4
y[183]=11
y[184]=14
y[185]=10
y[186]=6
y[187]=7
y[188]=5
y[189]=2
y[190]=6
y[191]=9
y[192]=6
y[193]=9
y[194]=2
y[195]=0
y[196]=10
y[197]=3
y[198]=3
y[199]=9
y[200]=2
y[201]=2
y[202]=9
y[203]=1
y[204]=9
y[205]=3
y[206]=3
y[207]=8
y[208]=12
y[209]=0
y[210]=8
y[211]=2
y[212]=3
y[213]=4
y[214]=9
y[215]=14
y[216]=3
y[217]=11
y[218]=2
y[219]=7
y[220]=11
y[221]=9
y[222]=0
y[223]=1
y[224]=10
y[225]=2
y[226]=12
y[227]=8
y[228]=13
y[229]=11
y[230]=14
y[231]=13
y[232]=12
y[233]=12
y[234]=11
y[235]=7
y[236]=4
y[237]=5
y[238]=13
y[239]=4
y[240]=11
y[241]=10
y[242]=8
y[243]=11
y[244]=3
y[245]=7
y[246]=12
y[247]=11
y[248]=1
y[249]=3
y[250]=8
y[251]=11
y[252]=0
y[253]=14
y[254]=10
y[255]=14
y[256]=5
y[257]=5
y[258]=13
y[259]=7
y[260]=2
y[261]=6
y[262]=13
y[263]=9
y[264]=3
y[265]=9
y[266]=11
y[267]=7
y[268]=0
y[269]=10
y[270]=1
y[271]=10
y[272]=5
y[273]=5
y[274]=1
y[275]=9
y[276]=7
y[277]=0
y[278]=13
y[279]=6
y[280]=12
y[281]=9
y[282]=5
y[283]=1
y[284]=13
y[285]=9
y[286]=1
y[287]=0
y[288]=3
y[289]=4
y[290]=3
y[291]=4
y[292]=14
y[293]=13
y[294]=2
y[295]=2
y[296]=4
y[297]=1
y[298]=1
y[299]=2
y[300]=6
y[301]=2
y[302]=14
y[303]=9
y[304]=6
y[305]=0
y[306]=8
y[307]=0
y[308]=1
y[309]=11
y[310]=6
y[311]=11
y[312]=2
y[313]=6
y[314]=4
y[315]=4
y[316]=12
y[317]=1
y[318]=13
y[319]=1
y[320]=13
y[321]=8
y[322]=6
y[323]=9
y[324]=12
y[325]=1
y[326]=12
y[327]=4
y[328]=9
y[329]=11
y[330]=12
y[331]=13
y[332]=13
y[333]=1
y[334]=12
y[335]=1
y[336]=12
y[337]=4
y[338]=2
y[339]=6
y[340]=0
y[341]=9
y[342]=7
y[343]=5
y[344]=2
y[345]=5
y[346]=0
y[347]=9
y[348]=9
y[349]=3
y[350]=10
y[351]=9
y[352]=8
y[353]=0
y[354]=5
y[355]=4
y[356]=3
y[357]=13
y[358]=3
y[359]=13
y[360]=2
y[361]=12
y[362]=2
y[363]=2
y[364]=8
y[365]=10
y[366]=6
y[367]=8
y[368]=13
y[369]=0
y[370]=3
y[371]=13
y[372]=14
y[373]=2
y[374]=10
y[375]=5
y[376]=0
y[377]=5
y[378]=7
y[379]=12
y[380]=9
y[381]=3
y[382]=5
y[383]=10
y[384]=6
y[385]=1
y[386]=3
y[387]=5
y[388]=1
y[389]=1
y[390]=6
y[391]=1
y[392]=10
y[393]=9
y[394]=6
y[395]=12
y[396]=14
y[397]=14
y[398]=13
y[399]=11
