data/solutions/planning/wellformed/hard/weighting/wellformed_hard_instance40_gurobi.log

Gurobi 6.5.2 (linux64) logging started Sat Mar  3 23:46:26 2018

Changed value of parameter LogFile to data/solutions/planning/wellformed/hard/weighting/wellformed_hard_instance40_gurobi.log
   Prev: gurobi.log  Default: 
Changed value of parameter Threads to 1
   Prev: 0  Min: 0  Max: 1024  Default: 0
Optimize a model with 430 rows, 6016 columns and 12044 nonzeros
Coefficient statistics:
  Matrix range    [1e+00, 1e+04]
  Objective range [1e+00, 2e+04]
  Bounds range    [1e+00, 1e+00]
  RHS range       [1e+00, 1e+00]
Found heuristic solution: objective 9.02368e+09
Presolve removed 3 rows and 3 columns
Presolve time: 0.02s
Presolved: 427 rows, 6013 columns, 12039 nonzeros
Variable types: 0 continuous, 6013 integer (6000 binary)

Root relaxation: objective 4.217320e+09, 625 iterations, 0.01 seconds

    Nodes    |    Current Node    |     Objective Bounds      |     Work
 Expl Unexpl |  Obj  Depth IntInf | Incumbent    BestBd   Gap | It/Node Time

     0     0 4.2173e+09    0   34 9.0237e+09 4.2173e+09  53.3%     -    0s
H    0     0                    4.369667e+09 4.2173e+09  3.49%     -    0s
     0     0 4.2173e+09    0   54 4.3697e+09 4.2173e+09  3.49%     -    0s
     0     0 4.2173e+09    0   53 4.3697e+09 4.2173e+09  3.49%     -    0s
     0     0 4.2173e+09    0   62 4.3697e+09 4.2173e+09  3.49%     -    0s
     0     0 4.2173e+09    0   40 4.3697e+09 4.2173e+09  3.49%     -    0s
     0     2 4.2173e+09    0   39 4.3697e+09 4.2173e+09  3.49%     -    0s
H  239   239                    4.368839e+09 4.2173e+09  3.47%   2.2    0s
H  639   639                    4.357834e+09 4.2173e+09  3.22%   2.0    1s
H  885   884                    4.357831e+09 4.2173e+09  3.22%   2.8    1s
H  993   992                    4.348196e+09 4.2173e+09  3.01%   3.9    1s
H 1687  1651                    4.347783e+09 4.2173e+09  3.00%   4.6    2s
H 1689  1570                    4.306343e+09 4.2173e+09  2.07%   4.6    2s
H 1705  1501                    4.303903e+09 4.2173e+09  2.01%   8.0    4s
H 1732  1443                    4.303178e+09 4.2173e+09  1.99%   8.1    4s
H 1759  1390                    4.303177e+09 4.2173e+09  1.99%   8.0    4s
  1841  1447 4.2173e+09   82   25 4.3032e+09 4.2173e+09  1.99%   8.0    5s
  4373  3043 4.2179e+09  702   21 4.3032e+09 4.2173e+09  1.99%   6.1   10s
H 6226  4219                    4.303173e+09 4.2173e+09  1.99%   6.0   13s
H 6951  4944                    4.303097e+09 4.2173e+09  1.99%   5.8   14s
  7662  5657 4.2174e+09  771   17 4.3031e+09 4.2173e+09  1.99%   5.8   15s
H 7793  5762                    4.301647e+09 4.2173e+09  1.96%   5.9   15s
H 7944  5653                    4.281895e+09 4.2173e+09  1.51%   5.9   15s
 10647  8216 4.2179e+09  822   18 4.2819e+09 4.2173e+09  1.51%   6.1   20s
H13373 10884                    4.281889e+09 4.2173e+09  1.51%   6.0   23s
 14902 12365 4.2173e+09  727   19 4.2819e+09 4.2173e+09  1.51%   6.0   25s
H14996 12457                    4.281886e+09 4.2173e+09  1.51%   6.0   25s
H16849 14227                    4.278635e+09 4.2173e+09  1.43%   6.2   28s
 18181 15434 4.2173e+09 1788   24 4.2786e+09 4.2173e+09  1.43%   6.2   30s
H18343 15504                    4.278635e+09 4.2173e+09  1.43%   6.3   30s
 21264 18309 4.2173e+09  734   17 4.2786e+09 4.2173e+09  1.43%   6.4   35s
 24832 21714 4.2173e+09  816   20 4.2786e+09 4.2173e+09  1.43%   6.8   40s
H25979 22847                    4.278157e+09 4.2173e+09  1.42%   6.9   41s
H26989 23783                    4.277595e+09 4.2173e+09  1.41%   6.9   42s
H27586 24380                    4.277576e+09 4.2173e+09  1.41%   7.0   43s
 28916 25642 4.2173e+09  777   16 4.2776e+09 4.2173e+09  1.41%   7.1   45s
 32933 29475 4.2182e+09 1155   17 4.2776e+09 4.2173e+09  1.41%   7.2   50s
H34161 30625                    4.274892e+09 4.2173e+09  1.35%   7.2   52s
 36279 32699 4.2173e+09  869   20 4.2749e+09 4.2173e+09  1.35%   7.4   55s
H39772 35861                    4.274502e+09 4.2173e+09  1.34%   7.4   59s
 39924 36015 4.2173e+09 1427   22 4.2745e+09 4.2173e+09  1.34%   7.4   60s
H43003 38828                    4.274469e+09 4.2173e+09  1.34%   7.5   63s
 43858 39635 4.2173e+09  907   22 4.2745e+09 4.2173e+09  1.34%   7.5   65s
 47584 42934 4.2185e+09 1058   16 4.2745e+09 4.2173e+09  1.34%   7.6   70s
H51415 46102                    4.259901e+09 4.2173e+09  1.00%   7.6   74s
 51994 46661 4.2173e+09 1164   23 4.2599e+09 4.2173e+09  1.00%   7.6   75s
 56125 50529 4.2173e+09  946   22 4.2599e+09 4.2173e+09  1.00%   7.6   80s
 59875 53993 4.2183e+09 1406   18 4.2599e+09 4.2173e+09  1.00%   7.6   85s
 63782 57668 4.2173e+09  942   21 4.2599e+09 4.2173e+09  1.00%   7.6   90s
 67394 61000 4.2173e+09  848   22 4.2599e+09 4.2173e+09  1.00%   7.7   95s
 71545 64699 4.2182e+09 1188   20 4.2599e+09 4.2173e+09  1.00%   7.6  100s
 75521 68298 4.2181e+09 1358   15 4.2599e+09 4.2173e+09  1.00%   7.6  105s
 79500 72049 4.2183e+09  992   16 4.2599e+09 4.2173e+09  1.00%   7.6  110s
 83679 75882 infeasible 1289      4.2599e+09 4.2173e+09  1.00%   7.6  115s
H86839 78674                    4.259868e+09 4.2173e+09  1.00%   7.6  119s
 87892 79635 4.2173e+09  829   21 4.2599e+09 4.2173e+09  1.00%   7.6  120s
H88243 79984                    4.259866e+09 4.2173e+09  1.00%   7.6  120s
 92004 83436 4.2183e+09 1420   14 4.2599e+09 4.2173e+09  1.00%   7.6  125s
 96138 87369 4.2173e+09  813   20 4.2599e+09 4.2173e+09  1.00%   7.6  130s
 99549 90529 4.2173e+09  919   21 4.2599e+09 4.2173e+09  1.00%   7.7  135s
 104125 94832 4.2173e+09  958   19 4.2599e+09 4.2173e+09  1.00%   7.7  140s
 107052 97504 4.2184e+09 1067   16 4.2599e+09 4.2173e+09  1.00%   7.7  145s
 109443 99656 4.2173e+09 1100   23 4.2599e+09 4.2173e+09  1.00%   7.7  150s
 112578 102525 4.2173e+09 1126   23 4.2599e+09 4.2173e+09  1.00%   7.7  155s
 115276 105041 4.2173e+09  871   19 4.2599e+09 4.2173e+09  1.00%   7.7  160s
H117163 106707                    4.259862e+09 4.2173e+09  1.00%   7.7  163s
 117396 106860 4.2173e+09  919   21 4.2599e+09 4.2173e+09  1.00%   7.7  165s
 120184 109433 4.2173e+09 1025   21 4.2599e+09 4.2173e+09  1.00%   7.7  170s
H120556 109718                    4.259858e+09 4.2173e+09  1.00%   7.7  170s
H121493 110606                    4.259857e+09 4.2173e+09  1.00%   7.7  172s
H122676 111674                    4.259773e+09 4.2173e+09  1.00%   7.7  174s
 123386 112343 4.2182e+09 1439   15 4.2598e+09 4.2173e+09  1.00%   7.7  175s
 126231 114864 4.2173e+09  814   15 4.2598e+09 4.2173e+09  1.00%   7.7  180s
 129112 117499 4.2173e+09  820   18 4.2598e+09 4.2173e+09  1.00%   7.8  185s
 132177 120383 4.2173e+09  832   18 4.2598e+09 4.2173e+09  1.00%   7.8  190s
 134253 122229 4.2173e+09  905   22 4.2598e+09 4.2173e+09  1.00%   7.8  195s
H136706 124508                    4.259741e+09 4.2173e+09  1.00%   7.7  199s
 137501 125178 4.2183e+09 1026   19 4.2597e+09 4.2173e+09  1.00%   7.7  200s
 140986 128456 4.2173e+09  909   20 4.2597e+09 4.2173e+09  1.00%   7.7  205s
*142497 116391            1119    4.218392e+09 4.2173e+09  0.02%   7.7  207s
 144345 118003 4.2181e+09 1215   21 4.2184e+09 4.2173e+09  0.02%   7.7  210s
 150671 123869 4.2173e+09  980   22 4.2184e+09 4.2173e+09  0.02%   7.6  215s
 157249 129829 4.2173e+09  913   20 4.2184e+09 4.2173e+09  0.02%   7.6  220s
 163822 135817 4.2183e+09 1127    6 4.2184e+09 4.2173e+09  0.02%   7.6  225s
 170572 141986 4.2173e+09 1065   23 4.2184e+09 4.2173e+09  0.02%   7.5  230s
 176396 147185 4.2181e+09  935   20 4.2184e+09 4.2173e+09  0.02%   7.5  235s
 182962 153134 4.2183e+09 1251   20 4.2184e+09 4.2173e+09  0.02%   7.5  240s
 189490 158867 4.2173e+09  862   21 4.2184e+09 4.2173e+09  0.02%   7.4  245s
 196226 165059 4.2173e+09  847   20 4.2184e+09 4.2173e+09  0.02%   7.4  250s
 202306 170461 4.2184e+09 1152   20 4.2184e+09 4.2173e+09  0.02%   7.4  255s
 208761 176360 4.2173e+09  851   18 4.2184e+09 4.2173e+09  0.02%   7.4  260s
 215813 182765 4.2173e+09 1049   21 4.2184e+09 4.2173e+09  0.02%   7.4  265s
 222967 189195 4.2182e+09 1062   20 4.2184e+09 4.2173e+09  0.02%   7.3  270s
 229210 194770 4.2173e+09 1098   22 4.2184e+09 4.2173e+09  0.02%   7.3  275s
 235915 201000 4.2182e+09  919   16 4.2184e+09 4.2173e+09  0.02%   7.3  280s
 242580 206736 4.2183e+09  996   19 4.2184e+09 4.2173e+09  0.02%   7.2  285s
 248957 212226 4.2183e+09  896   16 4.2184e+09 4.2173e+09  0.02%   7.2  290s
 256486 218786 4.2183e+09  890   15 4.2184e+09 4.2173e+09  0.02%   7.2  295s
 263473 224732 4.2183e+09  911   17 4.2184e+09 4.2173e+09  0.02%   7.1  300s
 271039 231249 infeasible 1175      4.2184e+09 4.2173e+09  0.02%   7.1  305s
 277145 236199 4.2184e+09 1048   13 4.2184e+09 4.2173e+09  0.02%   7.1  310s
 283566 241713 4.2183e+09  902   19 4.2184e+09 4.2173e+09  0.02%   7.1  315s
 290128 247183 4.2183e+09  962   19 4.2184e+09 4.2173e+09  0.02%   7.1  320s
 297416 253727 4.2183e+09 1052   20 4.2184e+09 4.2173e+09  0.02%   7.1  325s
 304393 259827 4.2182e+09  992   20 4.2184e+09 4.2173e+09  0.02%   7.1  330s
 311287 265977 4.2183e+09  891   15 4.2184e+09 4.2173e+09  0.02%   7.1  335s
 318311 271999 4.2183e+09  995   20 4.2184e+09 4.2173e+09  0.02%   7.1  340s
 325637 278297 4.2183e+09 1101   20 4.2184e+09 4.2173e+09  0.02%   7.1  345s
 332890 284743 4.2183e+09 1294   19 4.2184e+09 4.2173e+09  0.02%   7.0  350s
H333246 279335                    4.218384e+09 4.2173e+09  0.02%   7.0  350s
 340028 285414 4.2173e+09  935   17 4.2184e+09 4.2173e+09  0.02%   7.0  355s
 346952 291593 4.2181e+09  894   16 4.2184e+09 4.2173e+09  0.02%   7.0  360s
 353288 297156 4.2173e+09 1006   21 4.2184e+09 4.2173e+09  0.02%   7.0  365s
H353530 282066                    4.218359e+09 4.2173e+09  0.02%   7.0  365s
 358987 286933 4.2173e+09 1030   21 4.2184e+09 4.2173e+09  0.02%   7.0  370s
 365765 293233 4.2173e+09  827   19 4.2184e+09 4.2173e+09  0.02%   7.0  375s
 372452 299248 4.2173e+09  853   20 4.2184e+09 4.2173e+09  0.02%   7.0  380s
 379624 305709 4.2173e+09  963   20 4.2184e+09 4.2173e+09  0.02%   7.0  385s
 385561 311088 4.2173e+09  797   16 4.2184e+09 4.2173e+09  0.02%   6.9  390s
 391168 316094 4.2173e+09 1167   20 4.2184e+09 4.2173e+09  0.02%   6.9  395s
 397053 321400 4.2173e+09 1071   23 4.2184e+09 4.2173e+09  0.02%   6.9  400s
 402550 326265 4.2173e+09  991   21 4.2184e+09 4.2173e+09  0.02%   6.9  405s
 407647 330884 4.2173e+09  809   18 4.2184e+09 4.2173e+09  0.02%   6.9  410s
 411477 334281 4.2173e+09  901   19 4.2184e+09 4.2173e+09  0.02%   6.9  415s
 415936 338295 4.2173e+09  972   22 4.2184e+09 4.2173e+09  0.02%   6.9  420s
 421899 343715 4.2173e+09  875   20 4.2184e+09 4.2173e+09  0.02%   6.9  425s
 427834 349084 4.2173e+09 1115   23 4.2184e+09 4.2173e+09  0.02%   6.9  430s
 433243 353958 4.2173e+09 1028   19 4.2184e+09 4.2173e+09  0.02%   6.9  435s
 439447 359452 4.2173e+09  894   19 4.2184e+09 4.2173e+09  0.02%   6.8  440s
 445279 364621 4.2173e+09  807   21 4.2184e+09 4.2173e+09  0.02%   6.8  445s
 450812 369757 4.2173e+09 1006   20 4.2184e+09 4.2173e+09  0.02%   6.8  450s
 456880 374961 4.2183e+09 1094   19 4.2184e+09 4.2173e+09  0.02%   6.8  455s
 463496 380518 4.2181e+09 1163   17 4.2184e+09 4.2173e+09  0.02%   6.8  460s
 469986 386086 4.2173e+09  989   18 4.2184e+09 4.2173e+09  0.02%   6.7  465s
 475581 390552 4.2173e+09  946   16 4.2184e+09 4.2173e+09  0.02%   6.7  470s
 481571 395366 4.2173e+09 1040   19 4.2184e+09 4.2173e+09  0.02%   6.7  475s
 488464 401323 4.2173e+09 1035   18 4.2184e+09 4.2173e+09  0.02%   6.7  480s
 495291 407027 4.2183e+09 1052   16 4.2184e+09 4.2173e+09  0.02%   6.6  485s
 502012 412621 4.2173e+09  990   19 4.2184e+09 4.2173e+09  0.02%   6.6  490s
 508674 418138 4.2183e+09 1075   13 4.2184e+09 4.2173e+09  0.02%   6.6  495s
 514880 422985 4.2184e+09 1035   15 4.2184e+09 4.2173e+09  0.02%   6.5  500s
*520526 399452            1175    4.218341e+09 4.2173e+09  0.02%   6.5  504s
 520550 399474 4.2173e+09 1060   19 4.2183e+09 4.2173e+09  0.02%   6.5  505s
 527118 404605 4.2183e+09 1090   17 4.2183e+09 4.2173e+09  0.02%   6.5  510s
 532664 408997 4.2173e+09 1068   20 4.2183e+09 4.2173e+09  0.02%   6.5  515s
 539400 414190 infeasible 1163      4.2183e+09 4.2173e+09  0.02%   6.4  520s
 546014 419209 4.2181e+09 1138   20 4.2183e+09 4.2173e+09  0.02%   6.4  525s
 552623 424521 4.2183e+09 1168   18 4.2183e+09 4.2173e+09  0.02%   6.4  530s
 559899 430507 4.2182e+09 1066   16 4.2183e+09 4.2173e+09  0.02%   6.4  535s
 566962 436121 infeasible 1091      4.2183e+09 4.2173e+09  0.02%   6.3  540s
 573313 441011 4.2173e+09 1024   15 4.2183e+09 4.2173e+09  0.02%   6.3  545s
 578926 445018 4.2173e+09 1088   17 4.2183e+09 4.2173e+09  0.02%   6.3  550s
 584851 449285 4.2173e+09 1121   19 4.2183e+09 4.2173e+09  0.02%   6.3  555s
 591837 454323 4.2183e+09 1176   13 4.2183e+09 4.2173e+09  0.02%   6.2  560s
 597831 458439 4.2183e+09 1201   12 4.2183e+09 4.2173e+09  0.02%   6.2  565s
 604196 462571 4.2180e+09 1118   16 4.2183e+09 4.2173e+09  0.02%   6.2  570s
*608165 337812            1221    4.218210e+09 4.2173e+09  0.02%   6.2  574s
 609031 338007 infeasible 1217      4.2182e+09 4.2173e+09  0.02%   6.2  575s
 611874 338425 4.2182e+09 1209    8 4.2182e+09 4.2173e+09  0.02%   6.2  580s
 614554 338761 4.2180e+09 1211    6 4.2182e+09 4.2173e+09  0.02%   6.2  585s
 617496 339120 4.2181e+09 1200   10 4.2182e+09 4.2173e+09  0.02%   6.1  590s
 620798 339647 4.2173e+09 1212    9 4.2182e+09 4.2173e+09  0.02%   6.1  595s
 624076 340038 4.2180e+09 1206    8 4.2182e+09 4.2173e+09  0.02%   6.1  600s
 627417 341051 4.2180e+09 1202   10 4.2182e+09 4.2173e+09  0.02%   6.1  605s
 630462 342604 infeasible 1168      4.2182e+09 4.2173e+09  0.02%   6.1  610s
 634565 343161 4.2173e+09 1217    8 4.2182e+09 4.2173e+09  0.02%   6.1  615s
 639431 343126 infeasible 1215      4.2182e+09 4.2173e+09  0.02%   6.1  620s
 643317 343207     cutoff 1216      4.2182e+09 4.2173e+09  0.02%   6.1  625s
 647200 343316     cutoff 1214      4.2182e+09 4.2173e+09  0.02%   6.1  630s
 650979 343715     cutoff 1216      4.2182e+09 4.2173e+09  0.02%   6.1  635s
 654848 343894 4.2173e+09 1217   10 4.2182e+09 4.2173e+09  0.02%   6.1  640s
 658367 343989 4.2173e+09 1225    9 4.2182e+09 4.2173e+09  0.02%   6.1  645s
 662081 344144 infeasible 1222      4.2182e+09 4.2173e+09  0.02%   6.1  650s
 665607 344343 infeasible 1207      4.2182e+09 4.2173e+09  0.02%   6.1  655s
 669853 344630 4.2181e+09 1213   10 4.2182e+09 4.2173e+09  0.02%   6.1  660s
*672283 279819            1224    4.218070e+09 4.2173e+09  0.02%   6.1  663s
 673522 279905 4.2173e+09 1218   12 4.2181e+09 4.2173e+09  0.02%   6.1  665s
 676811 280334 infeasible 1223      4.2181e+09 4.2173e+09  0.02%   6.1  670s
 680263 280442 4.2173e+09 1210    9 4.2181e+09 4.2173e+09  0.02%   6.1  675s
 683186 280614     cutoff 1218      4.2181e+09 4.2173e+09  0.02%   6.1  680s
 685464 280675 4.2173e+09 1187   12 4.2181e+09 4.2173e+09  0.02%   6.1  685s
 687684 281324 infeasible 1209      4.2181e+09 4.2173e+09  0.02%   6.1  690s
 690749 281799 4.2173e+09 1209   10 4.2181e+09 4.2173e+09  0.02%   6.1  696s
 693063 282099 infeasible 1216      4.2181e+09 4.2173e+09  0.02%   6.1  700s
 695432 282276 4.2173e+09 1206   10 4.2181e+09 4.2173e+09  0.02%   6.1  705s
 698518 282594 infeasible 1215      4.2181e+09 4.2173e+09  0.02%   6.1  710s
 700940 282705 4.2173e+09 1209    9 4.2181e+09 4.2173e+09  0.02%   6.1  715s
 704231 282909     cutoff 1214      4.2181e+09 4.2173e+09  0.02%   6.1  720s
 707236 283067 4.2173e+09 1211    8 4.2181e+09 4.2173e+09  0.02%   6.0  725s
 710171 283386 infeasible 1231      4.2181e+09 4.2173e+09  0.02%   6.0  730s
 712537 283499 infeasible 1232      4.2181e+09 4.2173e+09  0.02%   6.0  735s
 714723 283589 4.2173e+09 1220   10 4.2181e+09 4.2173e+09  0.02%   6.0  740s
 717113 283587 infeasible 1228      4.2181e+09 4.2173e+09  0.02%   6.0  745s
 719893 283529     cutoff 1226      4.2181e+09 4.2173e+09  0.02%   6.0  750s
 721960 283467 4.2173e+09 1219   10 4.2181e+09 4.2173e+09  0.02%   6.0  755s
 725114 283444 4.2180e+09 1225    8 4.2181e+09 4.2173e+09  0.02%   6.0  760s
 728420 283513 4.2173e+09 1212   10 4.2181e+09 4.2173e+09  0.02%   6.0  765s
 731919 283602 4.2173e+09 1208    8 4.2181e+09 4.2173e+09  0.02%   6.0  770s
 735721 283598 4.2173e+09 1206   10 4.2181e+09 4.2173e+09  0.02%   6.0  775s
 739461 283498 4.2173e+09 1218    8 4.2181e+09 4.2173e+09  0.02%   6.0  780s
 742851 283497 4.2181e+09 1211   11 4.2181e+09 4.2173e+09  0.02%   6.0  785s
 746814 283644 4.2180e+09 1217   11 4.2181e+09 4.2173e+09  0.02%   6.0  790s
 750397 283667 infeasible 1217      4.2181e+09 4.2173e+09  0.02%   6.0  795s
 754255 283773 infeasible 1214      4.2181e+09 4.2173e+09  0.02%   6.0  800s
 757768 283883 4.2180e+09 1212   13 4.2181e+09 4.2173e+09  0.02%   6.0  805s
 762323 283893 4.2173e+09 1219   10 4.2181e+09 4.2173e+09  0.02%   6.0  810s
 765774 283792 infeasible 1209      4.2181e+09 4.2173e+09  0.02%   6.0  815s
 769040 283748 4.2173e+09 1218    8 4.2181e+09 4.2173e+09  0.02%   6.0  820s
 772298 283818 4.2173e+09 1201    9 4.2181e+09 4.2173e+09  0.02%   6.0  825s
 775897 283865 infeasible 1218      4.2181e+09 4.2173e+09  0.02%   6.0  830s
 779764 283953 infeasible 1215      4.2181e+09 4.2173e+09  0.02%   6.0  835s
 783346 284051 4.2181e+09 1220   10 4.2181e+09 4.2173e+09  0.02%   6.0  840s
 787312 284072 infeasible 1202      4.2181e+09 4.2173e+09  0.02%   6.0  845s
 791338 284237 4.2173e+09 1220   10 4.2181e+09 4.2173e+09  0.02%   6.0  850s
 795497 284365 4.2173e+09 1218    8 4.2181e+09 4.2173e+09  0.02%   6.0  855s
 799899 284475 4.2181e+09 1210    8 4.2181e+09 4.2173e+09  0.02%   6.0  860s
 803936 284563 4.2173e+09 1209    6 4.2181e+09 4.2173e+09  0.02%   6.0  865s
 807290 284667     cutoff 1222      4.2181e+09 4.2173e+09  0.02%   6.0  870s
 810512 284700 4.2173e+09 1230    8 4.2181e+09 4.2173e+09  0.02%   6.0  875s
*812119     4            1222    4.217341e+09 4.2173e+09  0.00%   6.0  877s

Cutting planes:
  Gomory: 2
  MIR: 1

Explored 812120 nodes (4848863 simplex iterations) in 877.10 seconds
Thread count was 1 (of 8 available processors)

Optimal solution found (tolerance 1.00e-04)
Best objective 4.217341246000e+09, best bound 4.217341246000e+09, gap 0.0%
